p cnf 15 23
-15 14 -11 0
15 -13 -9 0
15 13 -4 0
-15 -11 4 0
-15 -9 5 0
-15 9 -1 0
-15 6 2 0
-14 13 -9 0
-14 13 -1 0
14 -12 9 0
-14 -10 -6 0
14 6 -2 0
13 12 -6 0
-13 10 -7 0
-13 4 1 0
-12 11 -4 0
-12 -11 3 0
12 -10 1 0
-11 8 2 0
10 8 5 0
-10 -7 3 0
-9 3 2 0
4 -3 2 0
